param Pab := 
2
9
11
8
13
6
12
5
4
7
3
14
1
10
;

param Doctores := 
Ginebra
Geri
Gigi
Gilda
Geneva
Gioconda
Ghislaine
Georgette
Geraldine
Gianina
Gertrudis
Anthea
Annette
Anisia
Aniana
Aniria
Aniko
Annika
Anoha
Anke
Annabel
Annelie
;

param Paramedicas := 
Ariana
Ardelia
Arabela
Aranzazu
Argentina
Aricel
Araci
Arella
April
Arcadia
Aretusa
Ariella
Araminta
Arlene
Ashley
Asuncion
Aruna
Aspasia
Autumm
Auberta
Athenas
Aurilia
Audi
Aurek
Atenas
Asteria
Ascla
Augusta
;

param HdocSem := 
27
50
32
33
33
29
28
31
38
33
36
27
33
45
23
41
25
33
18
41
54
30
;

param HparSem := 
42
30
20
32
33
23
11
29
20
26
22
26
31
25
28
23
29
29
30
21
21
26
33
28
32
22
27
21
;

param HdocMax := 
45
45
45
45
45
45
45
45
45
45
45
45
45
45
45
45
45
45
45
45
45
45
;

param HparMax := 
45
45
45
45
45
45
45
45
45
45
45
45
45
45
45
45
45
45
45
45
45
45
45
45
45
45
45
45
;

param f1 := 
1 1 1 1 1 1 1 0 0 1 0 0 
1 0 1 1 1 0 1 1 1 0 1 1 
1 0 1 0 1 0 0 0 1 1 1 1 
0 1 1 1 1 1 1 1 1 1 1 1 
1 1 1 1 1 1 0 1 1 1 1 1 
1 1 0 1 1 1 1 1 1 0 1 1 
1 1 1 1 1 1 1 1 1 1 1 1 
1 1 1 0 1 1 0 1 1 1 0 0 
1 1 0 0 1 1 1 1 0 1 1 1 
1 0 1 1 1 1 1 0 1 1 0 1 
0 1 1 1 1 1 1 1 1 1 1 1 
1 1 1 1 1 1 1 1 1 0 0 1 
1 1 0 1 0 1 1 1 1 1 1 0 
1 1 1 0 1 1 1 1 1 1 1 1 
0 0 1 0 1 0 1 1 0 1 1 1 
0 1 1 1 1 0 1 0 1 1 1 0 
0 1 1 1 0 1 0 1 0 0 1 1 
0 1 1 1 1 1 1 0 1 0 0 1 
0 0 0 0 1 1 0 1 1 1 1 0 
1 1 1 1 1 0 1 1 1 1 1 1 
1 1 1 1 1 1 1 0 1 1 1 1 
1 1 1 1 1 0 0 0 1 1 1 1 
;

param paciente_rut := 
15016352-8
15934456-9
15251353-1
20515641-0
12120285-6
14235438-8
8217250-9
19870869-7
13185489-3
16347065-6
;

param paciente_paterno := 
Emilda
Elaine
Ernestina
Edit
Edena
Edit
Egle
Emilda
Emilia
Eladia
;

param paciente_materno := 
Gudula
Gretel
Grazia
Galit
Garland
Evelina
Griselda
Evacsa
Glauco
Gremy
;

param paciente_nombre := 
Enara
Emiliana
Elisabeth
Edna
Einat
Ervina
Enola
Ekaterina
Edith
Ealsa
;

param paciente_cirugia := 
Cirugía de Cabeza y Cuello
Cirugía de Cabeza y Cuello
Cirugía de Cabeza y Cuello
Ginecología y Obstetricia
Oftalmología
Dermatología
Otorrinolaringología
Oftalmología
Ginecología y Obstetricia
Ginecología y Obstetricia
;

